30
2 10 19 
2 37 40 
1 28 
2 4 25 
1 52 
2 55 34 
2 7 45 
2 58 49 
3 16 24 12 
3 1 15 21 
3 46 32 39 
2 13 22 
3 43 33 56 
1 48 
3 31 51 54 
1 3 
1 18 
3 9 60 17 
3 36 57 27 
2 59 35 
3 6 8 14 
3 2 44 47 
1 42 
1 30 
1 53 
3 5 41 29 
2 26 50 
2 38 11 
1 20 
1 23 
